treewidth/data/HanoiTowerGraph_4_3.gr
p tw 64 168
1 2
1 13
1 24
2 13
2 24
2 64
2 6
13 24
13 57
13 7
24 62
24 4
35 46
35 57
35 62
35 63
35 5
46 57
46 62
46 32
46 50
57 62
57 7
57 51
62 4
62 34
63 64
63 3
63 4
63 5
64 3
64 4
64 6
64 54
3 4
3 20
3 55
4 21
5 6
5 7
5 8
6 7
6 8
6 41
7 8
7 25
8 26
8 43
9 10
9 11
9 12
9 27
9 44
10 11
10 12
10 19
10 23
11 12
11 16
11 25
11 47
12 17
12 21
12 30
14 15
14 16
14 17
14 18
14 22
15 16
15 17
16 17
16 25
17 21
18 19
18 20
18 21
18 22
18 53
19 20
19 21
19 23
20 21
20 55
22 23
22 25
22 26
22 40
23 25
23 26
25 26
26 43
27 28
27 29
27 30
27 44
28 29
28 30
28 37
28 41
28 45
29 30
29 33
29 42
30 34
30 39
31 32
31 33
31 34
31 36
31 40
31 49
32 33
32 34
32 50
33 34
33 42
34 39
36 37
36 38
36 39
36 40
37 38
37 39
37 41
38 39
40 41
40 42
40 43
41 42
41 43
42 43
44 45
44 47
44 48
45 47
45 48
45 54
45 59
47 48
47 51
47 60
48 52
48 56
49 50
49 51
49 52
49 53
49 58
50 51
50 52
51 52
51 60
52 56
53 54
53 55
53 56
53 58
54 55
54 56
54 59
55 56
58 59
58 60
58 61
59 60
59 61
60 61
