treewidth/data/HanoiTowerGraph_4_3.td
c width = 13, time = 492.399990
s td 16 14 64
b 1 6 9 22 30 35 43 46 47 51 53 54 56 57 62
b 2 6 9 22 30 35 43 47 53 54 55 56 57 62 64
b 3 4 6 7 9 22 30 35 43 47 53 55 57 62 64
b 4 1 2 4 6 7 13 24 57 62 64
b 5 4 6 7 9 20 22 26 30 35 43 47 53 55 64
b 6 3 4 5 6 7 8 20 26 35 43 55 63 64
b 7 4 7 9 10 12 16 19 20 22 23 26 30 47 53
b 8 7 9 10 11 12 16 22 23 25 26 47
b 9 4 12 14 15 16 17 18 19 20 21 22 53
b 10 6 9 22 30 43 45 46 47 49 51 53 54 56 62
b 11 6 9 22 27 30 32 43 45 46 47 49 51 56 62
b 12 6 22 27 29 30 32 33 37 40 42 43 45 49 62
b 13 6 27 28 29 30 37 40 41 42 43 45
b 14 30 31 32 33 34 36 37 38 39 40 49 62
b 15 9 27 32 44 45 46 47 48 49 50 51 52 56
b 16 45 47 49 51 53 54 58 59 60 61
3 4
5 6
7 8
7 9
5 7
3 5
2 3
1 2
12 13
12 14
11 12
11 15
10 11
10 16
1 10
